
Gurobi 7.5.2 (linux64, Python) logging started Fri Dec 22 10:34:51 2017

Academic license - for non-commercial use only

Gurobi 7.5.2 (linux64, Python) logging started Fri Dec 22 10:34:52 2017

Academic license - for non-commercial use only

Gurobi 7.5.2 (linux64, Python) logging started Fri Dec 22 10:34:53 2017

Academic license - for non-commercial use only

Gurobi 7.5.2 (linux64, Python) logging started Fri Dec 22 10:34:54 2017

Academic license - for non-commercial use only

Gurobi 7.5.2 (linux64, Python) logging started Fri Dec 22 10:35:10 2017

Academic license - for non-commercial use only

Gurobi 7.0.2 (linux64, Python) logging started Fri Dec 22 11:29:33 2017


Gurobi 7.0.2 (linux64, Python) logging started Fri Dec 22 11:29:34 2017


Gurobi 7.0.2 (linux64, Python) logging started Fri Dec 22 11:29:36 2017


Gurobi 7.0.2 (linux64, Python) logging started Fri Dec 22 11:29:37 2017


Gurobi 7.0.2 (linux64, Python) logging started Fri Dec 22 11:29:53 2017


Gurobi 7.5.2 (linux64, Python) logging started Fri Dec 22 15:08:55 2017

Academic license - for non-commercial use only

Gurobi 7.5.2 (linux64, Python) logging started Fri Dec 22 15:08:56 2017

Academic license - for non-commercial use only

Gurobi 7.5.2 (linux64, Python) logging started Fri Dec 22 15:08:57 2017

Academic license - for non-commercial use only

Gurobi 7.5.2 (linux64, Python) logging started Fri Dec 22 15:08:58 2017

Academic license - for non-commercial use only

Gurobi 7.5.2 (linux64, Python) logging started Fri Dec 22 15:09:15 2017

Academic license - for non-commercial use only

Gurobi 7.5.2 (linux64, Python) logging started Fri Dec 22 17:07:41 2017

Academic license - for non-commercial use only

Gurobi 7.5.2 (linux64, Python) logging started Fri Dec 22 17:14:18 2017

Academic license - for non-commercial use only

Gurobi 7.5.2 (linux64, Python) logging started Fri Dec 22 17:15:10 2017

Academic license - for non-commercial use only

Gurobi 7.5.2 (linux64, Python) logging started Fri Dec 22 17:16:50 2017

Academic license - for non-commercial use only

Gurobi 7.5.2 (linux64, Python) logging started Fri Dec 22 17:26:04 2017

Academic license - for non-commercial use only

Gurobi 7.5.2 (linux64, Python) logging started Fri Dec 22 17:26:52 2017

Academic license - for non-commercial use only

Gurobi 7.5.2 (linux64, Python) logging started Fri Dec 22 17:27:54 2017

Academic license - for non-commercial use only

Gurobi 7.5.2 (linux64, Python) logging started Fri Dec 22 17:30:24 2017

Academic license - for non-commercial use only

Gurobi 7.5.2 (linux64, Python) logging started Fri Dec 22 17:34:49 2017

Academic license - for non-commercial use only

Gurobi 7.5.2 (linux64, Python) logging started Fri Dec 22 17:35:22 2017

Academic license - for non-commercial use only

Gurobi 7.5.2 (linux64, Python) logging started Sat Dec 23 02:15:24 2017

Academic license - for non-commercial use only

Gurobi 7.5.2 (linux64, Python) logging started Sat Dec 23 02:57:28 2017

Academic license - for non-commercial use only

Gurobi 7.5.2 (linux64, Python) logging started Sat Dec 23 03:06:10 2017

Academic license - for non-commercial use only
